\ Model pfsp_prec_copy
\ LP format - for model browsing. Use MPS format to capture full model detail.
Minimize
  0 C[2,1] + 0 C[2,5] + 0 C[3,4] + 0 C[3,9] + 0 x[1,4] + 0 y + 0 c
Subject To
 GC275: x[1,4] = 0 -> C[2,1] - c >= 6
 GC364: x[1,4] = 1 -> C[3,4] - y >= 5
Bounds
 C[2,1] free
 C[2,5] free
 C[3,4] free
 C[3,9] free
 y free
 c free
Binaries
 x[1,4]
General Constraints
 max_constraint2[1,9]: c = MAX ( C[2,1] , C[3,9] )
 max_constraint[4,5]: y = MAX ( C[2,5] , C[3,4] )
End
